# Solution for model GasLib-40
# Objective value = 1.0575238929200234e+01
loadshed[innode_1] 0
loadshed[innode_2] 0
loadshed[innode_3] 0
loadshed[innode_4] 0
loadshed[innode_5] 0
loadshed[innode_6] 0
loadshed[innode_7] 0
loadshed[innode_8] 0
loadshed[source_1] -3.1663316492709837e-01
loadshed[source_2] 9.2124079490934152e-02
loadshed[source_3] 0.29140275579855
loadshed[sink_1] 0
loadshed[sink_2] 0
loadshed[sink_3] 0
loadshed[sink_4] 0
loadshed[sink_5] 0
loadshed[sink_6] 0
loadshed[sink_7] 0
loadshed[sink_8] 0
loadshed[sink_9] 0
loadshed[sink_10] 0
loadshed[sink_11] 0
loadshed[sink_12] 6.4663881350523722e-01
loadshed[sink_13] 0
loadshed[sink_14] 0
loadshed[sink_15] 0
loadshed[sink_16] 0
loadshed[sink_17] 0
loadshed[sink_18] 0
loadshed[sink_19] 0
loadshed[sink_20] 0
loadshed[sink_21] 0
loadshed[sink_22] 0
loadshed[sink_23] 0
loadshed[sink_24] 0
loadshed[sink_25] 0
loadshed[sink_26] 0
loadshed[sink_27] 0
loadshed[sink_28] 0
loadshed[sink_29] 0
flow[source_1,sink_3] 2.0814690277475967e+02
flow[innode_1,sink_16] 1.6354166666666970e+01
flow[innode_6,sink_13] 2.4568314983052204e+00
flow[sink_13,sink_14] -1.3897335168361447e+01
flow[sink_14,sink_10] -3.0251501835028115e+01
flow[sink_25,sink_26] 1.4977871733389190e+02
flow[sink_26,sink_9] 1.3342455066722522e+02
flow[sink_9,sink_18] 1.1707038400055856e+02
flow[sink_26,sink_4] 0
flow[sink_4,sink_20] -3.3686313200876846e+01
flow[sink_18,sink_6] 1.0071621733389189e+02
flow[sink_25,innode_8] -1.7543856944142328e+02
flow[sink_6,sink_7] 5.1653717333891564e+01
flow[sink_6,sink_22] 3.2708333333333641e+01
flow[sink_7,sink_24] 3.8487261070799768e+01
flow[sink_22,sink_1] 1.6354166666666970e+01
flow[sink_24,sink_21] 2.2133094404133104e+01
flow[sink_21,sink_12] 5.7789277374664341e+00
flow[sink_7,sink_5] -3.1877104035746129e+00
flow[sink_5,sink_17] -1.9541877070241526e+01
flow[sink_17,sink_4] -1.7332146534210178e+01
flow[sink_17,sink_8] -1.8563897202697806e+01
flow[sink_3,sink_23] 16.3541666666697
flow[sink_8,sink_20] -3.4918063869364474e+01
flow[sink_25,sink_20] 8.4958543736908126e+01
flow[sink_25,sink_15] -7.8109689794349222e+01
flow[sink_15,sink_29] -1.1081802312770014e+02
flow[sink_29,sink_28] 1.6354166666667879e+01
flow[sink_29,sink_2] 0
flow[sink_2,sink_15] -1.6354166666684250e+01
flow[sink_29,innode_7] -1.4352635646103391e+02
flow[innode_4,sink_19] 9.5668168501695348e+01
flow[sink_19,innode_3] 3.8704898111273970e+01
flow[innode_4,innode_5] 1.6354166666679703e+01
flow[sink_27,innode_5] -1.6354166666679703e+01
flow[sink_27,sink_19] 0
flow[sink_10,sink_11] 3.2708333333333641e+01
flow[sink_10,innode_2] -4.0609103723754451e+01
flow[sink_10,innode_3] -3.8704898111273970e+01
flow[innode_6,sink_25] -2.4568314983052204e+00
flow[sink_11,innode_1] 1.6354166666666970e+01
flow[sink_19,innode_2] 4.0609103723754451e+01
flow[source_3,innode_4] 1.1202233516837505e+02
flow[source_2,innode_7] 1.4352635646103391e+02
flow[sink_3,innode_8] 1.7543856944142328e+02
pressure[innode_1] 7.4839428569618249e+01
pressure[innode_2] 7.7137488730113645e+01
pressure[innode_3] 7.7051781116100486e+01
pressure[innode_4] 81.01325
pressure[innode_5] 8.1002000741808772e+01
pressure[innode_6] 7.3548949954350689e+01
pressure[innode_7] 81.01325
pressure[innode_8] 8.0317494419022935e+01
pressure[source_1] 81.01325
pressure[source_2] 81.01325
pressure[source_3] 81.01325
pressure[sink_1] 4.5987863228284915e+01
pressure[sink_2] 7.3874465311874062e+01
pressure[sink_3] 8.0317494419022935e+01
pressure[sink_4] 50.823708330959
pressure[sink_5] 4.8705602252419631e+01
pressure[sink_6] 4.8088940838672286e+01
pressure[sink_7] 4.7379858423505127e+01
pressure[sink_8] 5.0861794910684850e+01
pressure[sink_9] 5.5014319135968066e+01
pressure[sink_10] 74.9911298772218
pressure[sink_11] 7.4839428569618249e+01
pressure[sink_12] 1.0132499999999998e+00
pressure[sink_13] 7.3535405852875215e+01
pressure[sink_14] 73.5602763179502
pressure[sink_15] 73.9278580616405
pressure[sink_16] 7.3817778734800569e+01
pressure[sink_17] 5.0161330841408066e+01
pressure[sink_18] 5.0778363713074334e+01
pressure[sink_19] 7.7137488730113645e+01
pressure[sink_20] 5.3295092900183107e+01
pressure[sink_21] 3.0697087709376154e+00
pressure[sink_22] 4.7051632370639922e+01
pressure[sink_23] 8.0152776407363149e+01
pressure[sink_24] 3.3148122273661658e+00
pressure[sink_25] 7.3548949954350689e+01
pressure[sink_26] 6.3000122852687468e+01
pressure[sink_27] 8.0866291377726043e+01
pressure[sink_28] 7.6879199954905616e+01
pressure[sink_29] 7.7174482228522791e+01
interdiction[source_1,sink_3] 0
interdiction[innode_1,sink_16] 0
interdiction[innode_6,sink_13] 0
interdiction[sink_13,sink_14] 0
interdiction[sink_14,sink_10] 0
interdiction[sink_25,sink_26] 0
interdiction[sink_26,sink_9] 0
interdiction[sink_9,sink_18] 0
interdiction[sink_26,sink_4] 1
interdiction[sink_4,sink_20] 0
interdiction[sink_18,sink_6] 0
interdiction[sink_25,innode_8] 0
interdiction[sink_6,sink_7] 0
interdiction[sink_6,sink_22] 0
interdiction[sink_7,sink_24] 0
interdiction[sink_22,sink_1] 0
interdiction[sink_24,sink_21] 0
interdiction[sink_21,sink_12] 0
interdiction[sink_7,sink_5] 0
interdiction[sink_5,sink_17] 0
interdiction[sink_17,sink_4] 0
interdiction[sink_17,sink_8] 0
interdiction[sink_3,sink_23] 0
interdiction[sink_8,sink_20] 0
interdiction[sink_25,sink_20] 0
interdiction[sink_25,sink_15] 0
interdiction[sink_15,sink_29] 0
interdiction[sink_29,sink_28] 0
interdiction[sink_29,sink_2] 1
interdiction[sink_2,sink_15] 0
interdiction[sink_29,innode_7] 0
interdiction[innode_4,sink_19] 0
interdiction[sink_19,innode_3] 0
interdiction[innode_4,innode_5] 0
interdiction[sink_27,innode_5] 0
interdiction[sink_27,sink_19] 1
interdiction[sink_10,sink_11] 0
interdiction[sink_10,innode_2] 0
interdiction[sink_10,innode_3] 0
interdiction[innode_6,sink_25] 0
interdiction[sink_11,innode_1] 0
interdiction[sink_19,innode_2] 0
interdiction[source_3,innode_4] 0
interdiction[source_2,innode_7] 0
interdiction[sink_3,innode_8] 0
WCcheckFlow[source_1,sink_3] 39
WCcheckFlow[innode_1,sink_16] 1
WCcheckFlow[innode_6,sink_13] 13
WCcheckFlow[sink_13,sink_14] 12
WCcheckFlow[sink_14,sink_10] 11
WCcheckFlow[sink_25,sink_26] 15
WCcheckFlow[sink_26,sink_9] 14
WCcheckFlow[sink_9,sink_18] 13
WCcheckFlow[sink_26,sink_4] 0
WCcheckFlow[sink_4,sink_20] 1
WCcheckFlow[sink_18,sink_6] 12
WCcheckFlow[sink_25,innode_8] -36
WCcheckFlow[sink_6,sink_7] 9
WCcheckFlow[sink_6,sink_22] 2
WCcheckFlow[sink_7,sink_24] 3
WCcheckFlow[sink_22,sink_1] 1
WCcheckFlow[sink_24,sink_21] 2
WCcheckFlow[sink_21,sink_12] 1
WCcheckFlow[sink_7,sink_5] 5
WCcheckFlow[sink_5,sink_17] 4
WCcheckFlow[sink_17,sink_4] 2
WCcheckFlow[sink_17,sink_8] 1
WCcheckFlow[sink_3,sink_23] 1
WCcheckFlow[sink_8,sink_20] 0
WCcheckFlow[sink_25,sink_20] 0
WCcheckFlow[sink_25,sink_15] 6
WCcheckFlow[sink_15,sink_29] 4
WCcheckFlow[sink_29,sink_28] 1
WCcheckFlow[sink_29,sink_2] 0
WCcheckFlow[sink_2,sink_15] -1
WCcheckFlow[sink_29,innode_7] 2
WCcheckFlow[innode_4,sink_19] -4
WCcheckFlow[sink_19,innode_3] -5
WCcheckFlow[innode_4,innode_5] 2
WCcheckFlow[sink_27,innode_5] -1
WCcheckFlow[sink_27,sink_19] 0
WCcheckFlow[sink_10,sink_11] 3
WCcheckFlow[sink_10,innode_2] 1
WCcheckFlow[sink_10,innode_3] 6
WCcheckFlow[innode_6,sink_25] -14
WCcheckFlow[sink_11,innode_1] 2
WCcheckFlow[sink_19,innode_2] 0
WCcheckFlow[source_3,innode_4] -1
WCcheckFlow[source_2,innode_7] -1
WCcheckFlow[sink_3,innode_8] 37
